\ This file has been generated by DOcplex
\ ENCODING=ISO-8859-1
\Problem name: mknap3

Maximize
 obj: 100 x_0 + 220 x_1 + 90 x_2 + 400 x_3 + 300 x_4 + 400 x_5 + 205 x_6
      + 120 x_7 + 160 x_8 + 580 x_9 + 400 x_10 + 140 x_11 + 100 x_12 + 1300 x_13
      + 650 x_14 + 320 x_15 + 480 x_16 + 80 x_17 + 60 x_18 + 2550 x_19
      + 3100 x_20 + 1100 x_21 + 950 x_22 + 450 x_23 + 300 x_24 + 220 x_25
      + 200 x_26 + 520 x_27
Subject To
 c1: 8 x_0 + 24 x_1 + 13 x_2 + 80 x_3 + 70 x_4 + 80 x_5 + 45 x_6 + 15 x_7
     + 28 x_8 + 90 x_9 + 130 x_10 + 32 x_11 + 20 x_12 + 120 x_13 + 40 x_14
     + 30 x_15 + 20 x_16 + 6 x_17 + 3 x_18 + 180 x_19 + 220 x_20 + 50 x_21
     + 30 x_22 + 50 x_23 + 12 x_24 + 5 x_25 + 8 x_26 + 18 x_27 <= 930
 c2: 8 x_0 + 44 x_1 + 13 x_2 + 100 x_3 + 100 x_4 + 90 x_5 + 75 x_6 + 25 x_7
     + 28 x_8 + 120 x_9 + 130 x_10 + 32 x_11 + 40 x_12 + 160 x_13 + 40 x_14
     + 60 x_15 + 55 x_16 + 10 x_17 + 6 x_18 + 240 x_19 + 290 x_20 + 80 x_21
     + 90 x_22 + 70 x_23 + 27 x_24 + 17 x_25 + 8 x_26 + 28 x_27 <= 1210
 c3: 3 x_0 + 6 x_1 + 4 x_2 + 20 x_3 + 20 x_4 + 30 x_5 + 8 x_6 + 3 x_7 + 12 x_8
     + 14 x_9 + 40 x_10 + 6 x_11 + 3 x_12 + 20 x_13 + 5 x_14 + 5 x_16 + 3 x_17
     + 20 x_19 + 30 x_20 + 40 x_21 + 10 x_22 + 5 x_24 + 10 x_27 <= 272
 c4: 5 x_0 + 9 x_1 + 6 x_2 + 40 x_3 + 30 x_4 + 40 x_5 + 16 x_6 + 5 x_7 + 18 x_8
     + 24 x_9 + 60 x_10 + 16 x_11 + 11 x_12 + 30 x_13 + 25 x_14 + 10 x_15
     + 13 x_16 + 5 x_17 + x_18 + 80 x_19 + 60 x_20 + 50 x_21 + 20 x_22 + 30 x_23
     + 10 x_24 + 5 x_25 + 3 x_26 + 20 x_27 <= 462
 c5: 5 x_0 + 11 x_1 + 7 x_2 + 50 x_3 + 40 x_4 + 40 x_5 + 19 x_6 + 7 x_7 + 18 x_8
     + 29 x_9 + 70 x_10 + 21 x_11 + 17 x_12 + 30 x_13 + 25 x_14 + 15 x_15
     + 25 x_16 + 5 x_17 + x_18 + 100 x_19 + 70 x_20 + 55 x_21 + 20 x_22
     + 50 x_23 + 15 x_24 + 15 x_25 + 6 x_26 + 20 x_27 <= 532
 c6: 5 x_0 + 11 x_1 + 7 x_2 + 55 x_3 + 40 x_4 + 40 x_5 + 21 x_6 + 9 x_7 + 18 x_8
     + 29 x_9 + 70 x_10 + 21 x_11 + 17 x_12 + 35 x_13 + 25 x_14 + 20 x_15
     + 25 x_16 + 5 x_17 + 2 x_18 + 110 x_19 + 70 x_20 + 55 x_21 + 20 x_22
     + 50 x_23 + 20 x_24 + 15 x_25 + 6 x_26 + 20 x_27 <= 572
 c7: x_2 + 10 x_3 + 4 x_4 + 10 x_5 + 6 x_7 + 6 x_9 + 32 x_10 + 3 x_11 + 70 x_13
     + 10 x_14 + 30 x_20 + 10 x_21 + 10 x_23 + 10 x_24 + 5 x_25 + 10 x_27 <= 
     240
 c8: 3 x_0 + 4 x_1 + 5 x_2 + 20 x_3 + 14 x_4 + 20 x_5 + 6 x_6 + 12 x_7 + 10 x_8
     + 18 x_9 + 42 x_10 + 9 x_11 + 12 x_12 + 100 x_13 + 20 x_14 + 5 x_15
     + 6 x_16 + 4 x_17 + x_18 + 20 x_19 + 50 x_20 + 30 x_21 + 5 x_22 + 20 x_23
     + 20 x_24 + 10 x_25 + 10 x_26 + 20 x_27 <= 400
 c9: 3 x_0 + 6 x_1 + 9 x_2 + 30 x_3 + 29 x_4 + 20 x_5 + 12 x_6 + 12 x_7 + 10 x_8
     + 30 x_9 + 42 x_10 + 18 x_11 + 18 x_12 + 110 x_13 + 20 x_14 + 15 x_15
     + 18 x_16 + 7 x_17 + 2 x_18 + 40 x_19 + 60 x_20 + 50 x_21 + 25 x_22
     + 25 x_23 + 25 x_24 + 15 x_25 + 10 x_26 + 28 x_27 <= 470
 c10: 3 x_0 + 8 x_1 + 9 x_2 + 35 x_3 + 29 x_4 + 20 x_5 + 16 x_6 + 15 x_7
      + 10 x_8 + 30 x_9 + 42 x_10 + 20 x_11 + 18 x_12 + 120 x_13 + 20 x_14
      + 20 x_15 + 22 x_16 + 7 x_17 + 3 x_18 + 50 x_19 + 60 x_20 + 55 x_21
      + 25 x_22 + 30 x_23 + 25 x_24 + 15 x_25 + 10 x_26 + 28 x_27 <= 490

Bounds
 0 <= x_0 <= 1
 0 <= x_1 <= 1
 0 <= x_2 <= 1
 0 <= x_3 <= 1
 0 <= x_4 <= 1
 0 <= x_5 <= 1
 0 <= x_6 <= 1
 0 <= x_7 <= 1
 0 <= x_8 <= 1
 0 <= x_9 <= 1
 0 <= x_10 <= 1
 0 <= x_11 <= 1
 0 <= x_12 <= 1
 0 <= x_13 <= 1
 0 <= x_14 <= 1
 0 <= x_15 <= 1
 0 <= x_16 <= 1
 0 <= x_17 <= 1
 0 <= x_18 <= 1
 0 <= x_19 <= 1
 0 <= x_20 <= 1
 0 <= x_21 <= 1
 0 <= x_22 <= 1
 0 <= x_23 <= 1
 0 <= x_24 <= 1
 0 <= x_25 <= 1
 0 <= x_26 <= 1
 0 <= x_27 <= 1

Binaries
 x_0 x_1 x_2 x_3 x_4 x_5 x_6 x_7 x_8 x_9 x_10 x_11 x_12 x_13 x_14 x_15 x_16 x_17
 x_18 x_19 x_20 x_21 x_22 x_23 x_24 x_25 x_26 x_27
End
